p cnf 401 1359
c p weight -159 1 0
c p weight 159 -1 0
c p weight 163 6.12323399573676603586882014729198302312846062338790031898128063403419218957424163818359375E-17 0
c p weight -163 1 0
c p weight 164 1 0
c p weight -164 1 0
c p weight -161 1 0
c p weight 161 -1 0
c p weight -165 1 0
c p weight 165 -1 0
c p weight -167 1 0
c p weight 167 -1 0
c p weight -170 1 0
c p weight 170 -1 0
c p weight -173 1 0
c p weight 173 -1 0
c p weight -176 1 0
c p weight 176 -1 0
c p weight -179 1 0
c p weight 179 -1 0
c p weight -182 1 0
c p weight 182 -1 0
c p weight -185 1 0
c p weight 185 -1 0
c p weight -188 1 0
c p weight 188 -1 0
c p weight -191 1 0
c p weight 191 -1 0
c p weight -194 1 0
c p weight 194 -1 0
c p weight -197 1 0
c p weight 197 -1 0
c p weight -200 1 0
c p weight 200 -1 0
c p weight -203 1 0
c p weight 203 -1 0
c p weight -206 1 0
c p weight 206 -1 0
c p weight -209 1 0
c p weight 209 -1 0
c p weight -212 1 0
c p weight 212 -1 0
c p weight -215 1 0
c p weight 215 -1 0
c p weight -218 1 0
c p weight 218 -1 0
c p weight -221 1 0
c p weight 221 -1 0
c p weight -224 1 0
c p weight 224 -1 0
c p weight -227 1 0
c p weight 227 -1 0
c p weight -230 1 0
c p weight 230 -1 0
c p weight -233 1 0
c p weight 233 -1 0
c p weight -236 1 0
c p weight 236 -1 0
c p weight -239 1 0
c p weight 239 -1 0
c p weight -242 1 0
c p weight 242 -1 0
c p weight -245 1 0
c p weight 245 -1 0
c p weight -248 1 0
c p weight 248 -1 0
c p weight -251 1 0
c p weight 251 -1 0
c p weight -254 1 0
c p weight 254 -1 0
c p weight -257 1 0
c p weight 257 -1 0
c p weight -260 1 0
c p weight 260 -1 0
c p weight -263 1 0
c p weight 263 -1 0
c p weight -266 1 0
c p weight 266 -1 0
c p weight -269 1 0
c p weight 269 -1 0
c p weight -272 1 0
c p weight 272 -1 0
c p weight -275 1 0
c p weight 275 -1 0
c p weight -278 1 0
c p weight 278 -1 0
c p weight -281 1 0
c p weight 281 -1 0
c p weight -284 1 0
c p weight 284 -1 0
c p weight -287 1 0
c p weight 287 -1 0
c p weight -290 1 0
c p weight 290 -1 0
c p weight -293 1 0
c p weight 293 -1 0
c p weight -296 1 0
c p weight 296 -1 0
c p weight -299 1 0
c p weight 299 -1 0
c p weight -302 1 0
c p weight 302 -1 0
c p weight -305 1 0
c p weight 305 -1 0
c p weight -308 1 0
c p weight 308 -1 0
c p weight -311 1 0
c p weight 311 -1 0
c p weight -314 1 0
c p weight 314 -1 0
c p weight -317 1 0
c p weight 317 -1 0
c p weight -320 1 0
c p weight 320 -1 0
c p weight -323 1 0
c p weight 323 -1 0
c p weight -326 1 0
c p weight 326 -1 0
c p weight -329 1 0
c p weight 329 -1 0
c p weight -332 1 0
c p weight 332 -1 0
c p weight -335 1 0
c p weight 335 -1 0
c p weight -338 1 0
c p weight 338 -1 0
c p weight -341 1 0
c p weight 341 -1 0
c p weight -344 1 0
c p weight 344 -1 0
c p weight -347 1 0
c p weight 347 -1 0
c p weight -350 1 0
c p weight 350 -1 0
c p weight -353 1 0
c p weight 353 -1 0
c p weight -356 1 0
c p weight 356 -1 0
c p weight -359 1 0
c p weight 359 -1 0
c p weight -362 1 0
c p weight 362 -1 0
c p weight -365 1 0
c p weight 365 -1 0
c p weight -368 1 0
c p weight 368 -1 0
c p weight -371 1 0
c p weight 371 -1 0
c p weight -374 1 0
c p weight 374 -1 0
c p weight -377 1 0
c p weight 377 -1 0
c p weight -380 1 0
c p weight 380 -1 0
c p weight -383 1 0
c p weight 383 -1 0
c p weight -386 1 0
c p weight 386 -1 0
c p weight -389 1 0
c p weight 389 -1 0
c p weight -392 1 0
c p weight 392 -1 0
c p weight -395 1 0
c p weight 395 -1 0
c p weight -398 1 0
c p weight 398 -1 0
c p weight 401 0.5 0
c p weight -401 1 0
401 0
-157 0
-155 0
-153 0
-151 0
-149 0
-147 0
-145 0
-143 0
-141 0
-139 0
-137 0
-135 0
-133 0
-131 0
-129 0
-127 0
-125 0
-123 0
-121 0
-119 0
-117 0
-115 0
-113 0
-111 0
-109 0
-107 0
-105 0
-103 0
-101 0
-99 0
-97 0
-95 0
-93 0
-91 0
-89 0
-87 0
-85 0
-83 0
-81 0
-79 0
-77 0
-75 0
-73 0
-71 0
-69 0
-67 0
-65 0
-63 0
-61 0
-59 0
-57 0
-55 0
-53 0
-51 0
-49 0
-47 0
-45 0
-43 0
-41 0
-39 0
-37 0
-35 0
-33 0
-31 0
-29 0
-27 0
-25 0
-23 0
-21 0
-19 0
-17 0
-15 0
-13 0
-11 0
-9 0
-7 0
-5 0
-3 0
-1 0
-159 157 0
-159 158 0
159 -157 -158 0
160 157 -158 0
160 -157 158 0
-160 157 158 0
-160 -157 -158 0
-161 162 0
-161 160 0
-161 -157 0
161 -162 157 -160 0
162 -157 160 0
-162 157 160 0
-163 160 0
162 -163 -157 0
-162 -163 157 0
162 163 157 -160 0
-162 163 -157 -160 0
-164 160 0
162 -164 157 0
-162 -164 -157 0
162 164 -157 -160 0
-162 164 157 -160 0
-165 162 0
-165 160 0
165 -162 -160 0
166 162 -160 0
166 -162 160 0
-166 162 160 0
-166 -162 -160 0
-167 162 0
-167 156 0
-167 155 -166 0
-167 -155 166 0
167 -162 155 166 -156 0
167 -162 -155 -166 -156 0
169 162 -155 0
169 -162 155 0
-169 162 155 0
-169 -162 -155 0
168 166 -156 0
168 -166 156 0
-168 166 156 0
-168 -166 -156 0
-170 169 0
-170 154 0
-170 153 -156 0
-170 -153 156 0
170 -169 153 156 -154 0
170 -169 -153 -156 -154 0
172 169 -153 0
172 -169 153 0
-172 169 153 0
-172 -169 -153 0
171 156 -154 0
171 -156 154 0
-171 156 154 0
-171 -156 -154 0
-173 172 0
-173 152 0
-173 151 -154 0
-173 -151 154 0
173 -172 151 154 -152 0
173 -172 -151 -154 -152 0
175 172 -151 0
175 -172 151 0
-175 172 151 0
-175 -172 -151 0
174 154 -152 0
174 -154 152 0
-174 154 152 0
-174 -154 -152 0
-176 175 0
-176 150 0
-176 149 -152 0
-176 -149 152 0
176 -175 149 152 -150 0
176 -175 -149 -152 -150 0
178 175 -149 0
178 -175 149 0
-178 175 149 0
-178 -175 -149 0
177 152 -150 0
177 -152 150 0
-177 152 150 0
-177 -152 -150 0
-179 178 0
-179 148 0
-179 147 -150 0
-179 -147 150 0
179 -178 147 150 -148 0
179 -178 -147 -150 -148 0
181 178 -147 0
181 -178 147 0
-181 178 147 0
-181 -178 -147 0
180 150 -148 0
180 -150 148 0
-180 150 148 0
-180 -150 -148 0
-182 181 0
-182 146 0
-182 145 -148 0
-182 -145 148 0
182 -181 145 148 -146 0
182 -181 -145 -148 -146 0
184 181 -145 0
184 -181 145 0
-184 181 145 0
-184 -181 -145 0
183 148 -146 0
183 -148 146 0
-183 148 146 0
-183 -148 -146 0
-185 184 0
-185 144 0
-185 143 -146 0
-185 -143 146 0
185 -184 143 146 -144 0
185 -184 -143 -146 -144 0
187 184 -143 0
187 -184 143 0
-187 184 143 0
-187 -184 -143 0
186 146 -144 0
186 -146 144 0
-186 146 144 0
-186 -146 -144 0
-188 187 0
-188 142 0
-188 141 -144 0
-188 -141 144 0
188 -187 141 144 -142 0
188 -187 -141 -144 -142 0
190 187 -141 0
190 -187 141 0
-190 187 141 0
-190 -187 -141 0
189 144 -142 0
189 -144 142 0
-189 144 142 0
-189 -144 -142 0
-191 190 0
-191 140 0
-191 139 -142 0
-191 -139 142 0
191 -190 139 142 -140 0
191 -190 -139 -142 -140 0
193 190 -139 0
193 -190 139 0
-193 190 139 0
-193 -190 -139 0
192 142 -140 0
192 -142 140 0
-192 142 140 0
-192 -142 -140 0
-194 193 0
-194 138 0
-194 137 -140 0
-194 -137 140 0
194 -193 137 140 -138 0
194 -193 -137 -140 -138 0
196 193 -137 0
196 -193 137 0
-196 193 137 0
-196 -193 -137 0
195 140 -138 0
195 -140 138 0
-195 140 138 0
-195 -140 -138 0
-197 196 0
-197 136 0
-197 135 -138 0
-197 -135 138 0
197 -196 135 138 -136 0
197 -196 -135 -138 -136 0
199 196 -135 0
199 -196 135 0
-199 196 135 0
-199 -196 -135 0
198 138 -136 0
198 -138 136 0
-198 138 136 0
-198 -138 -136 0
-200 199 0
-200 134 0
-200 133 -136 0
-200 -133 136 0
200 -199 133 136 -134 0
200 -199 -133 -136 -134 0
202 199 -133 0
202 -199 133 0
-202 199 133 0
-202 -199 -133 0
201 136 -134 0
201 -136 134 0
-201 136 134 0
-201 -136 -134 0
-203 202 0
-203 132 0
-203 131 -134 0
-203 -131 134 0
203 -202 131 134 -132 0
203 -202 -131 -134 -132 0
205 202 -131 0
205 -202 131 0
-205 202 131 0
-205 -202 -131 0
204 134 -132 0
204 -134 132 0
-204 134 132 0
-204 -134 -132 0
-206 205 0
-206 130 0
-206 129 -132 0
-206 -129 132 0
206 -205 129 132 -130 0
206 -205 -129 -132 -130 0
208 205 -129 0
208 -205 129 0
-208 205 129 0
-208 -205 -129 0
207 132 -130 0
207 -132 130 0
-207 132 130 0
-207 -132 -130 0
-209 208 0
-209 128 0
-209 127 -130 0
-209 -127 130 0
209 -208 127 130 -128 0
209 -208 -127 -130 -128 0
211 208 -127 0
211 -208 127 0
-211 208 127 0
-211 -208 -127 0
210 130 -128 0
210 -130 128 0
-210 130 128 0
-210 -130 -128 0
-212 211 0
-212 126 0
-212 125 -128 0
-212 -125 128 0
212 -211 125 128 -126 0
212 -211 -125 -128 -126 0
214 211 -125 0
214 -211 125 0
-214 211 125 0
-214 -211 -125 0
213 128 -126 0
213 -128 126 0
-213 128 126 0
-213 -128 -126 0
-215 214 0
-215 124 0
-215 123 -126 0
-215 -123 126 0
215 -214 123 126 -124 0
215 -214 -123 -126 -124 0
217 214 -123 0
217 -214 123 0
-217 214 123 0
-217 -214 -123 0
216 126 -124 0
216 -126 124 0
-216 126 124 0
-216 -126 -124 0
-218 217 0
-218 122 0
-218 121 -124 0
-218 -121 124 0
218 -217 121 124 -122 0
218 -217 -121 -124 -122 0
220 217 -121 0
220 -217 121 0
-220 217 121 0
-220 -217 -121 0
219 124 -122 0
219 -124 122 0
-219 124 122 0
-219 -124 -122 0
-221 220 0
-221 120 0
-221 119 -122 0
-221 -119 122 0
221 -220 119 122 -120 0
221 -220 -119 -122 -120 0
223 220 -119 0
223 -220 119 0
-223 220 119 0
-223 -220 -119 0
222 122 -120 0
222 -122 120 0
-222 122 120 0
-222 -122 -120 0
-224 223 0
-224 118 0
-224 117 -120 0
-224 -117 120 0
224 -223 117 120 -118 0
224 -223 -117 -120 -118 0
226 223 -117 0
226 -223 117 0
-226 223 117 0
-226 -223 -117 0
225 120 -118 0
225 -120 118 0
-225 120 118 0
-225 -120 -118 0
-227 226 0
-227 116 0
-227 115 -118 0
-227 -115 118 0
227 -226 115 118 -116 0
227 -226 -115 -118 -116 0
229 226 -115 0
229 -226 115 0
-229 226 115 0
-229 -226 -115 0
228 118 -116 0
228 -118 116 0
-228 118 116 0
-228 -118 -116 0
-230 229 0
-230 114 0
-230 113 -116 0
-230 -113 116 0
230 -229 113 116 -114 0
230 -229 -113 -116 -114 0
232 229 -113 0
232 -229 113 0
-232 229 113 0
-232 -229 -113 0
231 116 -114 0
231 -116 114 0
-231 116 114 0
-231 -116 -114 0
-233 232 0
-233 112 0
-233 111 -114 0
-233 -111 114 0
233 -232 111 114 -112 0
233 -232 -111 -114 -112 0
235 232 -111 0
235 -232 111 0
-235 232 111 0
-235 -232 -111 0
234 114 -112 0
234 -114 112 0
-234 114 112 0
-234 -114 -112 0
-236 235 0
-236 110 0
-236 109 -112 0
-236 -109 112 0
236 -235 109 112 -110 0
236 -235 -109 -112 -110 0
238 235 -109 0
238 -235 109 0
-238 235 109 0
-238 -235 -109 0
237 112 -110 0
237 -112 110 0
-237 112 110 0
-237 -112 -110 0
-239 238 0
-239 108 0
-239 107 -110 0
-239 -107 110 0
239 -238 107 110 -108 0
239 -238 -107 -110 -108 0
241 238 -107 0
241 -238 107 0
-241 238 107 0
-241 -238 -107 0
240 110 -108 0
240 -110 108 0
-240 110 108 0
-240 -110 -108 0
-242 241 0
-242 106 0
-242 105 -108 0
-242 -105 108 0
242 -241 105 108 -106 0
242 -241 -105 -108 -106 0
244 241 -105 0
244 -241 105 0
-244 241 105 0
-244 -241 -105 0
243 108 -106 0
243 -108 106 0
-243 108 106 0
-243 -108 -106 0
-245 244 0
-245 104 0
-245 103 -106 0
-245 -103 106 0
245 -244 103 106 -104 0
245 -244 -103 -106 -104 0
247 244 -103 0
247 -244 103 0
-247 244 103 0
-247 -244 -103 0
246 106 -104 0
246 -106 104 0
-246 106 104 0
-246 -106 -104 0
-248 247 0
-248 102 0
-248 101 -104 0
-248 -101 104 0
248 -247 101 104 -102 0
248 -247 -101 -104 -102 0
250 247 -101 0
250 -247 101 0
-250 247 101 0
-250 -247 -101 0
249 104 -102 0
249 -104 102 0
-249 104 102 0
-249 -104 -102 0
-251 250 0
-251 100 0
-251 99 -102 0
-251 -99 102 0
251 -250 99 102 -100 0
251 -250 -99 -102 -100 0
253 250 -99 0
253 -250 99 0
-253 250 99 0
-253 -250 -99 0
252 102 -100 0
252 -102 100 0
-252 102 100 0
-252 -102 -100 0
-254 253 0
-254 98 0
-254 97 -100 0
-254 -97 100 0
254 -253 97 100 -98 0
254 -253 -97 -100 -98 0
256 253 -97 0
256 -253 97 0
-256 253 97 0
-256 -253 -97 0
255 100 -98 0
255 -100 98 0
-255 100 98 0
-255 -100 -98 0
-257 256 0
-257 96 0
-257 95 -98 0
-257 -95 98 0
257 -256 95 98 -96 0
257 -256 -95 -98 -96 0
259 256 -95 0
259 -256 95 0
-259 256 95 0
-259 -256 -95 0
258 98 -96 0
258 -98 96 0
-258 98 96 0
-258 -98 -96 0
-260 259 0
-260 94 0
-260 93 -96 0
-260 -93 96 0
260 -259 93 96 -94 0
260 -259 -93 -96 -94 0
262 259 -93 0
262 -259 93 0
-262 259 93 0
-262 -259 -93 0
261 96 -94 0
261 -96 94 0
-261 96 94 0
-261 -96 -94 0
-263 262 0
-263 92 0
-263 91 -94 0
-263 -91 94 0
263 -262 91 94 -92 0
263 -262 -91 -94 -92 0
265 262 -91 0
265 -262 91 0
-265 262 91 0
-265 -262 -91 0
264 94 -92 0
264 -94 92 0
-264 94 92 0
-264 -94 -92 0
-266 265 0
-266 90 0
-266 89 -92 0
-266 -89 92 0
266 -265 89 92 -90 0
266 -265 -89 -92 -90 0
268 265 -89 0
268 -265 89 0
-268 265 89 0
-268 -265 -89 0
267 92 -90 0
267 -92 90 0
-267 92 90 0
-267 -92 -90 0
-269 268 0
-269 88 0
-269 87 -90 0
-269 -87 90 0
269 -268 87 90 -88 0
269 -268 -87 -90 -88 0
271 268 -87 0
271 -268 87 0
-271 268 87 0
-271 -268 -87 0
270 90 -88 0
270 -90 88 0
-270 90 88 0
-270 -90 -88 0
-272 271 0
-272 86 0
-272 85 -88 0
-272 -85 88 0
272 -271 85 88 -86 0
272 -271 -85 -88 -86 0
274 271 -85 0
274 -271 85 0
-274 271 85 0
-274 -271 -85 0
273 88 -86 0
273 -88 86 0
-273 88 86 0
-273 -88 -86 0
-275 274 0
-275 84 0
-275 83 -86 0
-275 -83 86 0
275 -274 83 86 -84 0
275 -274 -83 -86 -84 0
277 274 -83 0
277 -274 83 0
-277 274 83 0
-277 -274 -83 0
276 86 -84 0
276 -86 84 0
-276 86 84 0
-276 -86 -84 0
-278 277 0
-278 82 0
-278 81 -84 0
-278 -81 84 0
278 -277 81 84 -82 0
278 -277 -81 -84 -82 0
280 277 -81 0
280 -277 81 0
-280 277 81 0
-280 -277 -81 0
279 84 -82 0
279 -84 82 0
-279 84 82 0
-279 -84 -82 0
-281 280 0
-281 80 0
-281 79 -82 0
-281 -79 82 0
281 -280 79 82 -80 0
281 -280 -79 -82 -80 0
283 280 -79 0
283 -280 79 0
-283 280 79 0
-283 -280 -79 0
282 82 -80 0
282 -82 80 0
-282 82 80 0
-282 -82 -80 0
-284 283 0
-284 78 0
-284 77 -80 0
-284 -77 80 0
284 -283 77 80 -78 0
284 -283 -77 -80 -78 0
286 283 -77 0
286 -283 77 0
-286 283 77 0
-286 -283 -77 0
285 80 -78 0
285 -80 78 0
-285 80 78 0
-285 -80 -78 0
-287 286 0
-287 76 0
-287 75 -78 0
-287 -75 78 0
287 -286 75 78 -76 0
287 -286 -75 -78 -76 0
289 286 -75 0
289 -286 75 0
-289 286 75 0
-289 -286 -75 0
288 78 -76 0
288 -78 76 0
-288 78 76 0
-288 -78 -76 0
-290 289 0
-290 74 0
-290 73 -76 0
-290 -73 76 0
290 -289 73 76 -74 0
290 -289 -73 -76 -74 0
292 289 -73 0
292 -289 73 0
-292 289 73 0
-292 -289 -73 0
291 76 -74 0
291 -76 74 0
-291 76 74 0
-291 -76 -74 0
-293 292 0
-293 72 0
-293 71 -74 0
-293 -71 74 0
293 -292 71 74 -72 0
293 -292 -71 -74 -72 0
295 292 -71 0
295 -292 71 0
-295 292 71 0
-295 -292 -71 0
294 74 -72 0
294 -74 72 0
-294 74 72 0
-294 -74 -72 0
-296 295 0
-296 70 0
-296 69 -72 0
-296 -69 72 0
296 -295 69 72 -70 0
296 -295 -69 -72 -70 0
298 295 -69 0
298 -295 69 0
-298 295 69 0
-298 -295 -69 0
297 72 -70 0
297 -72 70 0
-297 72 70 0
-297 -72 -70 0
-299 298 0
-299 68 0
-299 67 -70 0
-299 -67 70 0
299 -298 67 70 -68 0
299 -298 -67 -70 -68 0
301 298 -67 0
301 -298 67 0
-301 298 67 0
-301 -298 -67 0
300 70 -68 0
300 -70 68 0
-300 70 68 0
-300 -70 -68 0
-302 301 0
-302 66 0
-302 65 -68 0
-302 -65 68 0
302 -301 65 68 -66 0
302 -301 -65 -68 -66 0
304 301 -65 0
304 -301 65 0
-304 301 65 0
-304 -301 -65 0
303 68 -66 0
303 -68 66 0
-303 68 66 0
-303 -68 -66 0
-305 304 0
-305 64 0
-305 63 -66 0
-305 -63 66 0
305 -304 63 66 -64 0
305 -304 -63 -66 -64 0
307 304 -63 0
307 -304 63 0
-307 304 63 0
-307 -304 -63 0
306 66 -64 0
306 -66 64 0
-306 66 64 0
-306 -66 -64 0
-308 307 0
-308 62 0
-308 61 -64 0
-308 -61 64 0
308 -307 61 64 -62 0
308 -307 -61 -64 -62 0
310 307 -61 0
310 -307 61 0
-310 307 61 0
-310 -307 -61 0
309 64 -62 0
309 -64 62 0
-309 64 62 0
-309 -64 -62 0
-311 310 0
-311 60 0
-311 59 -62 0
-311 -59 62 0
311 -310 59 62 -60 0
311 -310 -59 -62 -60 0
313 310 -59 0
313 -310 59 0
-313 310 59 0
-313 -310 -59 0
312 62 -60 0
312 -62 60 0
-312 62 60 0
-312 -62 -60 0
-314 313 0
-314 58 0
-314 57 -60 0
-314 -57 60 0
314 -313 57 60 -58 0
314 -313 -57 -60 -58 0
316 313 -57 0
316 -313 57 0
-316 313 57 0
-316 -313 -57 0
315 60 -58 0
315 -60 58 0
-315 60 58 0
-315 -60 -58 0
-317 316 0
-317 56 0
-317 55 -58 0
-317 -55 58 0
317 -316 55 58 -56 0
317 -316 -55 -58 -56 0
319 316 -55 0
319 -316 55 0
-319 316 55 0
-319 -316 -55 0
318 58 -56 0
318 -58 56 0
-318 58 56 0
-318 -58 -56 0
-320 319 0
-320 54 0
-320 53 -56 0
-320 -53 56 0
320 -319 53 56 -54 0
320 -319 -53 -56 -54 0
322 319 -53 0
322 -319 53 0
-322 319 53 0
-322 -319 -53 0
321 56 -54 0
321 -56 54 0
-321 56 54 0
-321 -56 -54 0
-323 322 0
-323 52 0
-323 51 -54 0
-323 -51 54 0
323 -322 51 54 -52 0
323 -322 -51 -54 -52 0
325 322 -51 0
325 -322 51 0
-325 322 51 0
-325 -322 -51 0
324 54 -52 0
324 -54 52 0
-324 54 52 0
-324 -54 -52 0
-326 325 0
-326 50 0
-326 49 -52 0
-326 -49 52 0
326 -325 49 52 -50 0
326 -325 -49 -52 -50 0
328 325 -49 0
328 -325 49 0
-328 325 49 0
-328 -325 -49 0
327 52 -50 0
327 -52 50 0
-327 52 50 0
-327 -52 -50 0
-329 328 0
-329 48 0
-329 47 -50 0
-329 -47 50 0
329 -328 47 50 -48 0
329 -328 -47 -50 -48 0
331 328 -47 0
331 -328 47 0
-331 328 47 0
-331 -328 -47 0
330 50 -48 0
330 -50 48 0
-330 50 48 0
-330 -50 -48 0
-332 331 0
-332 46 0
-332 45 -48 0
-332 -45 48 0
332 -331 45 48 -46 0
332 -331 -45 -48 -46 0
334 331 -45 0
334 -331 45 0
-334 331 45 0
-334 -331 -45 0
333 48 -46 0
333 -48 46 0
-333 48 46 0
-333 -48 -46 0
-335 334 0
-335 44 0
-335 43 -46 0
-335 -43 46 0
335 -334 43 46 -44 0
335 -334 -43 -46 -44 0
337 334 -43 0
337 -334 43 0
-337 334 43 0
-337 -334 -43 0
336 46 -44 0
336 -46 44 0
-336 46 44 0
-336 -46 -44 0
-338 337 0
-338 42 0
-338 41 -44 0
-338 -41 44 0
338 -337 41 44 -42 0
338 -337 -41 -44 -42 0
340 337 -41 0
340 -337 41 0
-340 337 41 0
-340 -337 -41 0
339 44 -42 0
339 -44 42 0
-339 44 42 0
-339 -44 -42 0
-341 340 0
-341 40 0
-341 39 -42 0
-341 -39 42 0
341 -340 39 42 -40 0
341 -340 -39 -42 -40 0
343 340 -39 0
343 -340 39 0
-343 340 39 0
-343 -340 -39 0
342 42 -40 0
342 -42 40 0
-342 42 40 0
-342 -42 -40 0
-344 343 0
-344 38 0
-344 37 -40 0
-344 -37 40 0
344 -343 37 40 -38 0
344 -343 -37 -40 -38 0
346 343 -37 0
346 -343 37 0
-346 343 37 0
-346 -343 -37 0
345 40 -38 0
345 -40 38 0
-345 40 38 0
-345 -40 -38 0
-347 346 0
-347 36 0
-347 35 -38 0
-347 -35 38 0
347 -346 35 38 -36 0
347 -346 -35 -38 -36 0
349 346 -35 0
349 -346 35 0
-349 346 35 0
-349 -346 -35 0
348 38 -36 0
348 -38 36 0
-348 38 36 0
-348 -38 -36 0
-350 349 0
-350 34 0
-350 33 -36 0
-350 -33 36 0
350 -349 33 36 -34 0
350 -349 -33 -36 -34 0
352 349 -33 0
352 -349 33 0
-352 349 33 0
-352 -349 -33 0
351 36 -34 0
351 -36 34 0
-351 36 34 0
-351 -36 -34 0
-353 352 0
-353 32 0
-353 31 -34 0
-353 -31 34 0
353 -352 31 34 -32 0
353 -352 -31 -34 -32 0
355 352 -31 0
355 -352 31 0
-355 352 31 0
-355 -352 -31 0
354 34 -32 0
354 -34 32 0
-354 34 32 0
-354 -34 -32 0
-356 355 0
-356 30 0
-356 29 -32 0
-356 -29 32 0
356 -355 29 32 -30 0
356 -355 -29 -32 -30 0
358 355 -29 0
358 -355 29 0
-358 355 29 0
-358 -355 -29 0
357 32 -30 0
357 -32 30 0
-357 32 30 0
-357 -32 -30 0
-359 358 0
-359 28 0
-359 27 -30 0
-359 -27 30 0
359 -358 27 30 -28 0
359 -358 -27 -30 -28 0
361 358 -27 0
361 -358 27 0
-361 358 27 0
-361 -358 -27 0
360 30 -28 0
360 -30 28 0
-360 30 28 0
-360 -30 -28 0
-362 361 0
-362 26 0
-362 25 -28 0
-362 -25 28 0
362 -361 25 28 -26 0
362 -361 -25 -28 -26 0
364 361 -25 0
364 -361 25 0
-364 361 25 0
-364 -361 -25 0
363 28 -26 0
363 -28 26 0
-363 28 26 0
-363 -28 -26 0
-365 364 0
-365 24 0
-365 23 -26 0
-365 -23 26 0
365 -364 23 26 -24 0
365 -364 -23 -26 -24 0
367 364 -23 0
367 -364 23 0
-367 364 23 0
-367 -364 -23 0
366 26 -24 0
366 -26 24 0
-366 26 24 0
-366 -26 -24 0
-368 367 0
-368 22 0
-368 21 -24 0
-368 -21 24 0
368 -367 21 24 -22 0
368 -367 -21 -24 -22 0
370 367 -21 0
370 -367 21 0
-370 367 21 0
-370 -367 -21 0
369 24 -22 0
369 -24 22 0
-369 24 22 0
-369 -24 -22 0
-371 370 0
-371 20 0
-371 19 -22 0
-371 -19 22 0
371 -370 19 22 -20 0
371 -370 -19 -22 -20 0
373 370 -19 0
373 -370 19 0
-373 370 19 0
-373 -370 -19 0
372 22 -20 0
372 -22 20 0
-372 22 20 0
-372 -22 -20 0
-374 373 0
-374 18 0
-374 17 -20 0
-374 -17 20 0
374 -373 17 20 -18 0
374 -373 -17 -20 -18 0
376 373 -17 0
376 -373 17 0
-376 373 17 0
-376 -373 -17 0
375 20 -18 0
375 -20 18 0
-375 20 18 0
-375 -20 -18 0
-377 376 0
-377 16 0
-377 15 -18 0
-377 -15 18 0
377 -376 15 18 -16 0
377 -376 -15 -18 -16 0
379 376 -15 0
379 -376 15 0
-379 376 15 0
-379 -376 -15 0
378 18 -16 0
378 -18 16 0
-378 18 16 0
-378 -18 -16 0
-380 379 0
-380 14 0
-380 13 -16 0
-380 -13 16 0
380 -379 13 16 -14 0
380 -379 -13 -16 -14 0
382 379 -13 0
382 -379 13 0
-382 379 13 0
-382 -379 -13 0
381 16 -14 0
381 -16 14 0
-381 16 14 0
-381 -16 -14 0
-383 382 0
-383 12 0
-383 11 -14 0
-383 -11 14 0
383 -382 11 14 -12 0
383 -382 -11 -14 -12 0
385 382 -11 0
385 -382 11 0
-385 382 11 0
-385 -382 -11 0
384 14 -12 0
384 -14 12 0
-384 14 12 0
-384 -14 -12 0
-386 385 0
-386 10 0
-386 9 -12 0
-386 -9 12 0
386 -385 9 12 -10 0
386 -385 -9 -12 -10 0
388 385 -9 0
388 -385 9 0
-388 385 9 0
-388 -385 -9 0
387 12 -10 0
387 -12 10 0
-387 12 10 0
-387 -12 -10 0
-389 388 0
-389 8 0
-389 7 -10 0
-389 -7 10 0
389 -388 7 10 -8 0
389 -388 -7 -10 -8 0
391 388 -7 0
391 -388 7 0
-391 388 7 0
-391 -388 -7 0
390 10 -8 0
390 -10 8 0
-390 10 8 0
-390 -10 -8 0
-392 391 0
-392 6 0
-392 5 -8 0
-392 -5 8 0
392 -391 5 8 -6 0
392 -391 -5 -8 -6 0
394 391 -5 0
394 -391 5 0
-394 391 5 0
-394 -391 -5 0
393 8 -6 0
393 -8 6 0
-393 8 6 0
-393 -8 -6 0
-395 394 0
-395 4 0
-395 3 -6 0
-395 -3 6 0
395 -394 3 6 -4 0
395 -394 -3 -6 -4 0
397 394 -3 0
397 -394 3 0
-397 394 3 0
-397 -394 -3 0
396 6 -4 0
396 -6 4 0
-396 6 4 0
-396 -6 -4 0
-398 397 0
-398 2 0
-398 1 -4 0
-398 -1 4 0
398 -397 1 4 -2 0
398 -397 -1 -4 -2 0
400 397 -1 0
400 -397 1 0
-400 397 1 0
-400 -397 -1 0
399 4 -2 0
399 -4 2 0
-399 4 2 0
-399 -4 -2 0
-400 0
-397 0
-399 0
-394 0
-396 0
-391 0
-393 0
-388 0
-390 0
-385 0
-387 0
-382 0
-384 0
-379 0
-381 0
-376 0
-378 0
-373 0
-375 0
-370 0
-372 0
-367 0
-369 0
-364 0
-366 0
-361 0
-363 0
-358 0
-360 0
-355 0
-357 0
-352 0
-354 0
-349 0
-351 0
-346 0
-348 0
-343 0
-345 0
-340 0
-342 0
-337 0
-339 0
-334 0
-336 0
-331 0
-333 0
-328 0
-330 0
-325 0
-327 0
-322 0
-324 0
-319 0
-321 0
-316 0
-318 0
-313 0
-315 0
-310 0
-312 0
-307 0
-309 0
-304 0
-306 0
-301 0
-303 0
-298 0
-300 0
-295 0
-297 0
-292 0
-294 0
-289 0
-291 0
-286 0
-288 0
-283 0
-285 0
-280 0
-282 0
-277 0
-279 0
-274 0
-276 0
-271 0
-273 0
-268 0
-270 0
-265 0
-267 0
-262 0
-264 0
-259 0
-261 0
-256 0
-258 0
-253 0
-255 0
-250 0
-252 0
-247 0
-249 0
-244 0
-246 0
-241 0
-243 0
-238 0
-240 0
-235 0
-237 0
-232 0
-234 0
-229 0
-231 0
-226 0
-228 0
-223 0
-225 0
-220 0
-222 0
-217 0
-219 0
-214 0
-216 0
-211 0
-213 0
-208 0
-210 0
-205 0
-207 0
-202 0
-204 0
-199 0
-201 0
-196 0
-198 0
-193 0
-195 0
-190 0
-192 0
-187 0
-189 0
-184 0
-186 0
-181 0
-183 0
-178 0
-180 0
-175 0
-177 0
-172 0
-174 0
-169 0
-171 0
-162 0
-168 0
